c File: flat50_3_0.col
c
c SOURCE: Joseph Culberson (joe@cs.ualberta.ca)
c DESCRIPTION: Quasi-random coloring problem
c              generated with flatness = 0
c                             probability = 0.139
c                             known coloring = 3
c                             random seed = 1665
c              Creation Date:  Tue Jun  9 12:14:53 1998
c Maximum degree = 8 Minimum degree = 2
c p edge 50 115
c cnf created by edge2cnf
p cnf 150 545
-1 -2 0
-1 -3 0
-2 -3 0
1 2 3 0
-4 -5 0
-4 -6 0
-5 -6 0
4 5 6 0
-7 -8 0
-7 -9 0
-8 -9 0
7 8 9 0
-10 -11 0
-10 -12 0
-11 -12 0
10 11 12 0
-13 -14 0
-13 -15 0
-14 -15 0
13 14 15 0
-16 -17 0
-16 -18 0
-17 -18 0
16 17 18 0
-19 -20 0
-19 -21 0
-20 -21 0
19 20 21 0
-22 -23 0
-22 -24 0
-23 -24 0
22 23 24 0
-25 -26 0
-25 -27 0
-26 -27 0
25 26 27 0
-28 -29 0
-28 -30 0
-29 -30 0
28 29 30 0
-31 -32 0
-31 -33 0
-32 -33 0
31 32 33 0
-34 -35 0
-34 -36 0
-35 -36 0
34 35 36 0
-37 -38 0
-37 -39 0
-38 -39 0
37 38 39 0
-40 -41 0
-40 -42 0
-41 -42 0
40 41 42 0
-43 -44 0
-43 -45 0
-44 -45 0
43 44 45 0
-46 -47 0
-46 -48 0
-47 -48 0
46 47 48 0
-49 -50 0
-49 -51 0
-50 -51 0
49 50 51 0
-52 -53 0
-52 -54 0
-53 -54 0
52 53 54 0
-55 -56 0
-55 -57 0
-56 -57 0
55 56 57 0
-58 -59 0
-58 -60 0
-59 -60 0
58 59 60 0
-61 -62 0
-61 -63 0
-62 -63 0
61 62 63 0
-64 -65 0
-64 -66 0
-65 -66 0
64 65 66 0
-67 -68 0
-67 -69 0
-68 -69 0
67 68 69 0
-70 -71 0
-70 -72 0
-71 -72 0
70 71 72 0
-73 -74 0
-73 -75 0
-74 -75 0
73 74 75 0
-76 -77 0
-76 -78 0
-77 -78 0
76 77 78 0
-79 -80 0
-79 -81 0
-80 -81 0
79 80 81 0
-82 -83 0
-82 -84 0
-83 -84 0
82 83 84 0
-85 -86 0
-85 -87 0
-86 -87 0
85 86 87 0
-88 -89 0
-88 -90 0
-89 -90 0
88 89 90 0
-91 -92 0
-91 -93 0
-92 -93 0
91 92 93 0
-94 -95 0
-94 -96 0
-95 -96 0
94 95 96 0
-97 -98 0
-97 -99 0
-98 -99 0
97 98 99 0
-100 -101 0
-100 -102 0
-101 -102 0
100 101 102 0
-103 -104 0
-103 -105 0
-104 -105 0
103 104 105 0
-106 -107 0
-106 -108 0
-107 -108 0
106 107 108 0
-109 -110 0
-109 -111 0
-110 -111 0
109 110 111 0
-112 -113 0
-112 -114 0
-113 -114 0
112 113 114 0
-115 -116 0
-115 -117 0
-116 -117 0
115 116 117 0
-118 -119 0
-118 -120 0
-119 -120 0
118 119 120 0
-121 -122 0
-121 -123 0
-122 -123 0
121 122 123 0
-124 -125 0
-124 -126 0
-125 -126 0
124 125 126 0
-127 -128 0
-127 -129 0
-128 -129 0
127 128 129 0
-130 -131 0
-130 -132 0
-131 -132 0
130 131 132 0
-133 -134 0
-133 -135 0
-134 -135 0
133 134 135 0
-136 -137 0
-136 -138 0
-137 -138 0
136 137 138 0
-139 -140 0
-139 -141 0
-140 -141 0
139 140 141 0
-142 -143 0
-142 -144 0
-143 -144 0
142 143 144 0
-145 -146 0
-145 -147 0
-146 -147 0
145 146 147 0
-148 -149 0
-148 -150 0
-149 -150 0
148 149 150 0
-58 -1 0
-59 -2 0
-60 -3 0
-85 -1 0
-86 -2 0
-87 -3 0
-85 -4 0
-86 -5 0
-87 -6 0
-127 -4 0
-128 -5 0
-129 -6 0
-52 -7 0
-53 -8 0
-54 -9 0
-67 -7 0
-68 -8 0
-69 -9 0
-70 -7 0
-71 -8 0
-72 -9 0
-88 -7 0
-89 -8 0
-90 -9 0
-133 -7 0
-134 -8 0
-135 -9 0
-145 -7 0
-146 -8 0
-147 -9 0
-67 -10 0
-68 -11 0
-69 -12 0
-85 -10 0
-86 -11 0
-87 -12 0
-145 -10 0
-146 -11 0
-147 -12 0
-64 -13 0
-65 -14 0
-66 -15 0
-70 -13 0
-71 -14 0
-72 -15 0
-100 -13 0
-101 -14 0
-102 -15 0
-106 -13 0
-107 -14 0
-108 -15 0
-127 -13 0
-128 -14 0
-129 -15 0
-55 -16 0
-56 -17 0
-57 -18 0
-73 -16 0
-74 -17 0
-75 -18 0
-82 -16 0
-83 -17 0
-84 -18 0
-139 -16 0
-140 -17 0
-141 -18 0
-148 -16 0
-149 -17 0
-150 -18 0
-76 -19 0
-77 -20 0
-78 -21 0
-115 -19 0
-116 -20 0
-117 -21 0
-118 -19 0
-119 -20 0
-120 -21 0
-124 -19 0
-125 -20 0
-126 -21 0
-130 -19 0
-131 -20 0
-132 -21 0
-55 -22 0
-56 -23 0
-57 -24 0
-64 -22 0
-65 -23 0
-66 -24 0
-73 -22 0
-74 -23 0
-75 -24 0
-115 -22 0
-116 -23 0
-117 -24 0
-121 -22 0
-122 -23 0
-123 -24 0
-133 -22 0
-134 -23 0
-135 -24 0
-145 -22 0
-146 -23 0
-147 -24 0
-88 -25 0
-89 -26 0
-90 -27 0
-118 -25 0
-119 -26 0
-120 -27 0
-97 -28 0
-98 -29 0
-99 -30 0
-103 -28 0
-104 -29 0
-105 -30 0
-109 -28 0
-110 -29 0
-111 -30 0
-82 -31 0
-83 -32 0
-84 -33 0
-91 -31 0
-92 -32 0
-93 -33 0
-97 -31 0
-98 -32 0
-99 -33 0
-112 -31 0
-113 -32 0
-114 -33 0
-133 -31 0
-134 -32 0
-135 -33 0
-148 -31 0
-149 -32 0
-150 -33 0
-61 -34 0
-62 -35 0
-63 -36 0
-106 -34 0
-107 -35 0
-108 -36 0
-109 -34 0
-110 -35 0
-111 -36 0
-61 -37 0
-62 -38 0
-63 -39 0
-103 -37 0
-104 -38 0
-105 -39 0
-106 -37 0
-107 -38 0
-108 -39 0
-109 -37 0
-110 -38 0
-111 -39 0
-52 -40 0
-53 -41 0
-54 -42 0
-64 -40 0
-65 -41 0
-66 -42 0
-82 -40 0
-83 -41 0
-84 -42 0
-94 -40 0
-95 -41 0
-96 -42 0
-124 -40 0
-125 -41 0
-126 -42 0
-142 -40 0
-143 -41 0
-144 -42 0
-64 -43 0
-65 -44 0
-66 -45 0
-70 -43 0
-71 -44 0
-72 -45 0
-82 -43 0
-83 -44 0
-84 -45 0
-94 -43 0
-95 -44 0
-96 -45 0
-142 -43 0
-143 -44 0
-144 -45 0
-145 -43 0
-146 -44 0
-147 -45 0
-79 -46 0
-80 -47 0
-81 -48 0
-91 -46 0
-92 -47 0
-93 -48 0
-106 -46 0
-107 -47 0
-108 -48 0
-124 -46 0
-125 -47 0
-126 -48 0
-127 -46 0
-128 -47 0
-129 -48 0
-136 -46 0
-137 -47 0
-138 -48 0
-52 -49 0
-53 -50 0
-54 -51 0
-67 -49 0
-68 -50 0
-69 -51 0
-76 -49 0
-77 -50 0
-78 -51 0
-85 -49 0
-86 -50 0
-87 -51 0
-121 -49 0
-122 -50 0
-123 -51 0
-127 -49 0
-128 -50 0
-129 -51 0
-115 -52 0
-116 -53 0
-117 -54 0
-115 -55 0
-116 -56 0
-117 -57 0
-130 -55 0
-131 -56 0
-132 -57 0
-145 -55 0
-146 -56 0
-147 -57 0
-148 -55 0
-149 -56 0
-150 -57 0
-112 -58 0
-113 -59 0
-114 -60 0
-103 -61 0
-104 -62 0
-105 -63 0
-106 -61 0
-107 -62 0
-108 -63 0
-112 -61 0
-113 -62 0
-114 -63 0
-124 -61 0
-125 -62 0
-126 -63 0
-109 -64 0
-110 -65 0
-111 -66 0
-121 -64 0
-122 -65 0
-123 -66 0
-121 -67 0
-122 -68 0
-123 -69 0
-124 -67 0
-125 -68 0
-126 -69 0
-124 -70 0
-125 -71 0
-126 -72 0
-133 -70 0
-134 -71 0
-135 -72 0
-121 -73 0
-122 -74 0
-123 -75 0
-103 -76 0
-104 -77 0
-105 -78 0
-118 -76 0
-119 -77 0
-120 -78 0
-106 -79 0
-107 -80 0
-108 -81 0
-130 -79 0
-131 -80 0
-132 -81 0
-109 -85 0
-110 -86 0
-111 -87 0
-118 -85 0
-119 -86 0
-120 -87 0
-133 -85 0
-134 -86 0
-135 -87 0
-139 -85 0
-140 -86 0
-141 -87 0
-124 -88 0
-125 -89 0
-126 -90 0
-139 -88 0
-140 -89 0
-141 -90 0
-127 -91 0
-128 -92 0
-129 -93 0
-133 -91 0
-134 -92 0
-135 -93 0
-109 -94 0
-110 -95 0
-111 -96 0
-109 -97 0
-110 -98 0
-111 -99 0
-136 -97 0
-137 -98 0
-138 -99 0
-139 -97 0
-140 -98 0
-141 -99 0
-142 -97 0
-143 -98 0
-144 -99 0
-103 -100 0
-104 -101 0
-105 -102 0
-106 -100 0
-107 -101 0
-108 -102 0
-121 -100 0
-122 -101 0
-123 -102 0
-133 -100 0
-134 -101 0
-135 -102 0
